set VV := 0 1 2 3 4 ;
set VS := 0 1 2 3 4 5 6 7 8 9 10 11 12 13 14 ;
param cv := 
0 20
1 14
2 14
3 20
4 18
;
param cs := 
0 37
1 28
2 36
3 32
4 25
5 38
6 37
7 33
8 31
9 33
10 33
11 33
12 28
13 39
14 21
;
param bv:	 0 1 2 3 4 := 
		0 0 0 0 10 13 
		1 0 0 0 0 19 
		2 0 0 0 19 0 
		3 0 0 0 0 0 
		4 0 0 0 0 0 
;
param bs:	 0 1 2 3 4 5 6 7 8 9 10 11 12 13 14 := 
		0 0 0 0 0 0 0 0 0 33 0 0 0 0 0 0 
		1 0 0 0 0 0 25 20 28 0 0 39 0 0 0 26 
		2 0 0 0 0 0 0 0 0 0 0 0 0 24 0 0 
		3 0 0 0 0 0 0 0 24 0 0 0 0 28 0 38 
		4 0 0 0 0 0 0 0 0 0 22 35 0 25 0 31 
		5 0 25 0 0 0 0 0 0 0 0 0 0 0 0 0 
		6 0 20 0 0 0 0 0 0 0 0 0 0 0 0 0 
		7 0 28 0 24 0 0 0 0 0 0 0 0 20 37 0 
		8 33 0 0 0 0 0 0 0 0 37 0 0 0 0 0 
		9 0 0 0 0 22 0 0 0 37 0 0 0 0 0 0 
		10 0 39 0 0 35 0 0 0 0 0 0 0 0 0 0 
		11 0 0 0 0 0 0 0 0 0 0 0 0 0 39 0 
		12 0 0 24 28 25 0 0 20 0 0 0 0 0 0 0 
		13 0 0 0 0 0 0 0 37 0 0 0 39 0 0 0 
		14 0 26 0 38 31 0 0 0 0 0 0 0 0 0 0 
;
